NAME : Tai150c.2358652.tour
COMMENT : Length = 2358652
COMMENT : Found by LKH [Keld Helsgaun] Tue May  8 14:27:25 2018
TYPE : TOUR
DIMENSION : 165
TOUR_SECTION
1
92
94
87
91
86
89
98
99
88
163
74
147
149
60
64
63
61
58
59
62
57
56
70
75
161
78
73
76
109
106
102
103
100
111
157
77
6
72
13
11
159
12
2
7
8
152
138
144
137
132
135
133
131
118
115
113
114
116
110
155
143
142
20
17
26
30
21
31
34
46
15
156
108
101
107
105
10
158
139
140
141
24
19
32
36
29
18
25
35
27
136
134
128
130
129
127
160
43
45
44
97
49
37
14
154
5
3
153
38
50
55
79
83
84
81
80
85
82
23
22
28
33
48
39
47
41
162
96
95
51
52
40
53
42
4
164
16
112
117
126
119
125
121
124
122
123
120
104
165
9
71
69
150
146
148
151
145
65
68
67
66
54
90
93
-1
EOF
